p cnf 254 1278
144 172 237 0
83 137 151 0
114 121 123 0
131 196 0
112 135 139 143 157 0
163 166 168 198 0
171 175 252 0
133 149 178 180 206 0
100 108 117 184 0
93 95 98 116 0
91 127 160 0
88 89 103 0
90 129 0
86 185 0
126 234 0
85 164 218 0
82 140 173 0
132 179 182 0
96 187 190 193 247 0
113 120 195 197 0
199 202 203 0
107 204 208 210 211 0
118 213 215 0
147 161 217 0
84 154 220 222 0
223 226 227 230 0
102 188 231 0
170 201 0
87 150 176 0
109 134 186 0
99 119 212 233 0
162 165 219 235 236 0
138 238 239 0
241 242 244 0
97 105 191 0
125 246 248 249 251 0
253 254 0
148 177 207 0
106 183 209 0
79 80 81 159 0
78 146 0
77 153 221 225 0
74 75 101 0
71 72 73 0
69 70 0
67 68 169 200 0
-137 -237 0
-237 -240 0
-196 -237 0
-143 -237 0
-137 -240 0
-137 -196 0
-137 -143 0
-196 -240 0
-143 -240 0
-143 -196 0
-178 -252 0
-184 -252 0
-66 -252 0
-65 -252 0
-178 -184 0
-66 -178 0
-65 -178 0
-66 -184 0
-65 -184 0
-65 -66 0
-63 -64 0
-64 -90 0
-64 -86 0
-62 -64 0
-63 -90 0
-63 -86 0
-62 -63 0
-86 -90 0
-62 -90 0
-62 -86 0
-61 -212 0
-212 -235 0
-105 -212 0
-212 -246 0
-61 -235 0
-61 -105 0
-61 -246 0
-105 -235 0
-235 -246 0
-105 -246 0
-60 -194 0
-156 -194 0
-194 -214 0
-81 -194 0
-60 -156 0
-60 -214 0
-60 -81 0
-156 -214 0
-81 -156 0
-81 -214 0
-237 -252 0
-64 -237 0
-212 -237 0
-194 -237 0
-64 -252 0
-212 -252 0
-194 -252 0
-64 -212 0
-64 -194 0
-194 -212 0
-137 -178 0
-63 -137 0
-61 -137 0
-60 -137 0
-63 -178 0
-61 -178 0
-60 -178 0
-61 -63 0
-60 -63 0
-60 -61 0
-184 -240 0
-90 -240 0
-235 -240 0
-156 -240 0
-90 -184 0
-184 -235 0
-156 -184 0
-90 -235 0
-90 -156 0
-156 -235 0
-66 -196 0
-86 -196 0
-105 -196 0
-196 -214 0
-66 -86 0
-66 -105 0
-66 -214 0
-86 -105 0
-86 -214 0
-105 -214 0
-65 -143 0
-62 -143 0
-143 -246 0
-81 -143 0
-62 -65 0
-65 -246 0
-65 -81 0
-62 -246 0
-62 -81 0
-81 -246 0
-83 -181 0
-58 -83 0
-83 -192 0
-83 -123 0
-83 -112 0
-83 -163 0
-58 -181 0
-181 -192 0
-123 -181 0
-112 -181 0
-163 -181 0
-58 -192 0
-58 -123 0
-58 -112 0
-58 -163 0
-123 -192 0
-112 -192 0
-163 -192 0
-112 -123 0
-123 -163 0
-112 -163 0
-108 -149 0
-116 -149 0
-149 -160 0
-149 -216 0
-149 -229 0
-89 -149 0
-108 -116 0
-108 -160 0
-108 -216 0
-108 -229 0
-89 -108 0
-116 -160 0
-116 -216 0
-116 -229 0
-89 -116 0
-160 -216 0
-160 -229 0
-89 -160 0
-216 -229 0
-89 -216 0
-89 -229 0
-140 -164 0
-164 -179 0
-57 -164 0
-96 -164 0
-120 -164 0
-56 -164 0
-140 -179 0
-57 -140 0
-96 -140 0
-120 -140 0
-56 -140 0
-57 -179 0
-96 -179 0
-120 -179 0
-56 -179 0
-57 -96 0
-57 -120 0
-56 -57 0
-96 -120 0
-56 -96 0
-56 -120 0
-55 -199 0
-199 -204 0
-199 -213 0
-54 -199 0
-199 -220 0
-199 -223 0
-55 -204 0
-55 -213 0
-54 -55 0
-55 -220 0
-55 -223 0
-204 -213 0
-54 -204 0
-204 -220 0
-204 -223 0
-54 -213 0
-213 -220 0
-213 -223 0
-54 -220 0
-54 -223 0
-220 -223 0
-53 -231 0
-52 -231 0
-51 -231 0
-50 -231 0
-176 -231 0
-134 -231 0
-52 -53 0
-51 -53 0
-50 -53 0
-53 -176 0
-53 -134 0
-51 -52 0
-50 -52 0
-52 -176 0
-52 -134 0
-50 -51 0
-51 -176 0
-51 -134 0
-50 -176 0
-50 -134 0
-134 -176 0
-49 -236 0
-49 -238 0
-49 -136 0
-49 -241 0
-49 -248 0
-48 -49 0
-236 -238 0
-136 -236 0
-236 -241 0
-236 -248 0
-48 -236 0
-136 -238 0
-238 -241 0
-238 -248 0
-48 -238 0
-136 -241 0
-136 -248 0
-48 -136 0
-241 -248 0
-48 -241 0
-48 -248 0
-47 -142 0
-142 -253 0
-142 -177 0
-142 -183 0
-80 -142 0
-78 -142 0
-47 -253 0
-47 -177 0
-47 -183 0
-47 -80 0
-47 -78 0
-177 -253 0
-183 -253 0
-80 -253 0
-78 -253 0
-177 -183 0
-80 -177 0
-78 -177 0
-80 -183 0
-78 -183 0
-78 -80 0
-83 -149 0
-83 -164 0
-83 -199 0
-83 -231 0
-49 -83 0
-83 -142 0
-149 -164 0
-149 -199 0
-149 -231 0
-49 -149 0
-142 -149 0
-164 -199 0
-164 -231 0
-49 -164 0
-142 -164 0
-199 -231 0
-49 -199 0
-142 -199 0
-49 -231 0
-142 -231 0
-49 -142 0
-108 -181 0
-140 -181 0
-55 -181 0
-53 -181 0
-181 -236 0
-47 -181 0
-108 -140 0
-55 -108 0
-53 -108 0
-108 -236 0
-47 -108 0
-55 -140 0
-53 -140 0
-140 -236 0
-47 -140 0
-53 -55 0
-55 -236 0
-47 -55 0
-53 -236 0
-47 -53 0
-47 -236 0
-58 -116 0
-58 -179 0
-58 -204 0
-52 -58 0
-58 -238 0
-58 -253 0
-116 -179 0
-116 -204 0
-52 -116 0
-116 -238 0
-116 -253 0
-179 -204 0
-52 -179 0
-179 -238 0
-179 -253 0
-52 -204 0
-204 -238 0
-204 -253 0
-52 -238 0
-52 -253 0
-238 -253 0
-160 -192 0
-57 -192 0
-192 -213 0
-51 -192 0
-136 -192 0
-177 -192 0
-57 -160 0
-160 -213 0
-51 -160 0
-136 -160 0
-160 -177 0
-57 -213 0
-51 -57 0
-57 -136 0
-57 -177 0
-51 -213 0
-136 -213 0
-177 -213 0
-51 -136 0
-51 -177 0
-136 -177 0
-123 -216 0
-96 -123 0
-54 -123 0
-50 -123 0
-123 -241 0
-123 -183 0
-96 -216 0
-54 -216 0
-50 -216 0
-216 -241 0
-183 -216 0
-54 -96 0
-50 -96 0
-96 -241 0
-96 -183 0
-50 -54 0
-54 -241 0
-54 -183 0
-50 -241 0
-50 -183 0
-183 -241 0
-112 -229 0
-112 -120 0
-112 -220 0
-112 -176 0
-112 -248 0
-80 -112 0
-120 -229 0
-220 -229 0
-176 -229 0
-229 -248 0
-80 -229 0
-120 -220 0
-120 -176 0
-120 -248 0
-80 -120 0
-176 -220 0
-220 -248 0
-80 -220 0
-176 -248 0
-80 -176 0
-80 -248 0
-89 -163 0
-56 -163 0
-163 -223 0
-134 -163 0
-48 -163 0
-78 -163 0
-56 -89 0
-89 -223 0
-89 -134 0
-48 -89 0
-78 -89 0
-56 -223 0
-56 -134 0
-48 -56 0
-56 -78 0
-134 -223 0
-48 -223 0
-78 -223 0
-48 -134 0
-78 -134 0
-48 -78 0
-127 -206 0
-145 -206 0
-152 -206 0
-46 -206 0
-127 -145 0
-127 -152 0
-46 -127 0
-145 -152 0
-46 -145 0
-46 -152 0
-45 -218 0
-190 -218 0
-218 -250 0
-113 -218 0
-45 -190 0
-45 -250 0
-45 -113 0
-190 -250 0
-113 -190 0
-113 -250 0
-44 -102 0
-43 -102 0
-102 -201 0
-87 -102 0
-43 -44 0
-44 -201 0
-44 -87 0
-43 -201 0
-43 -87 0
-87 -201 0
-111 -148 0
-106 -111 0
-111 -115 0
-111 -159 0
-106 -148 0
-115 -148 0
-148 -159 0
-106 -115 0
-106 -159 0
-115 -159 0
-73 -228 0
-70 -228 0
-41 -228 0
-68 -228 0
-70 -73 0
-41 -73 0
-68 -73 0
-41 -70 0
-68 -70 0
-41 -68 0
-206 -218 0
-102 -206 0
-111 -206 0
-206 -228 0
-102 -218 0
-111 -218 0
-218 -228 0
-102 -111 0
-102 -228 0
-111 -228 0
-45 -127 0
-44 -127 0
-127 -148 0
-73 -127 0
-44 -45 0
-45 -148 0
-45 -73 0
-44 -148 0
-44 -73 0
-73 -148 0
-145 -190 0
-43 -145 0
-106 -145 0
-70 -145 0
-43 -190 0
-106 -190 0
-70 -190 0
-43 -106 0
-43 -70 0
-70 -106 0
-152 -250 0
-152 -201 0
-115 -152 0
-41 -152 0
-201 -250 0
-115 -250 0
-41 -250 0
-115 -201 0
-41 -201 0
-41 -115 0
-46 -113 0
-46 -87 0
-46 -159 0
-46 -68 0
-87 -113 0
-113 -159 0
-68 -113 0
-87 -159 0
-68 -87 0
-68 -159 0
-82 -126 0
-40 -126 0
-126 -187 0
-39 -126 0
-38 -126 0
-40 -82 0
-82 -187 0
-39 -82 0
-38 -82 0
-40 -187 0
-39 -40 0
-38 -40 0
-39 -187 0
-38 -187 0
-38 -39 0
-37 -174 0
-37 -118 0
-37 -92 0
-37 -161 0
-37 -226 0
-118 -174 0
-92 -174 0
-161 -174 0
-174 -226 0
-92 -118 0
-118 -161 0
-118 -226 0
-92 -161 0
-92 -226 0
-161 -226 0
-34 -36 0
-36 -128 0
-31 -36 0
-36 -170 0
-36 -186 0
-34 -128 0
-31 -34 0
-34 -170 0
-34 -186 0
-31 -128 0
-128 -170 0
-128 -186 0
-31 -170 0
-31 -186 0
-170 -186 0
-165 -233 0
-29 -233 0
-233 -242 0
-97 -233 0
-28 -233 0
-29 -165 0
-165 -242 0
-97 -165 0
-28 -165 0
-29 -242 0
-29 -97 0
-28 -29 0
-97 -242 0
-28 -242 0
-28 -97 0
-26 -27 0
-27 -207 0
-27 -209 0
-24 -27 0
-27 -146 0
-26 -207 0
-26 -209 0
-24 -26 0
-26 -146 0
-207 -209 0
-24 -207 0
-146 -207 0
-24 -209 0
-146 -209 0
-24 -146 0
-75 -153 0
-72 -153 0
-69 -153 0
-23 -153 0
-22 -153 0
-72 -75 0
-69 -75 0
-23 -75 0
-22 -75 0
-69 -72 0
-23 -72 0
-22 -72 0
-23 -69 0
-22 -69 0
-22 -23 0
-37 -126 0
-36 -126 0
-126 -233 0
-27 -126 0
-126 -153 0
-36 -37 0
-37 -233 0
-27 -37 0
-37 -153 0
-36 -233 0
-27 -36 0
-36 -153 0
-27 -233 0
-153 -233 0
-27 -153 0
-82 -174 0
-34 -82 0
-82 -165 0
-26 -82 0
-75 -82 0
-34 -174 0
-165 -174 0
-26 -174 0
-75 -174 0
-34 -165 0
-26 -34 0
-34 -75 0
-26 -165 0
-75 -165 0
-26 -75 0
-40 -118 0
-40 -128 0
-29 -40 0
-40 -207 0
-40 -72 0
-118 -128 0
-29 -118 0
-118 -207 0
-72 -118 0
-29 -128 0
-128 -207 0
-72 -128 0
-29 -207 0
-29 -72 0
-72 -207 0
-92 -187 0
-31 -187 0
-187 -242 0
-187 -209 0
-69 -187 0
-31 -92 0
-92 -242 0
-92 -209 0
-69 -92 0
-31 -242 0
-31 -209 0
-31 -69 0
-209 -242 0
-69 -242 0
-69 -209 0
-39 -161 0
-39 -170 0
-39 -97 0
-24 -39 0
-23 -39 0
-161 -170 0
-97 -161 0
-24 -161 0
-23 -161 0
-97 -170 0
-24 -170 0
-23 -170 0
-24 -97 0
-23 -97 0
-23 -24 0
-38 -226 0
-38 -186 0
-28 -38 0
-38 -146 0
-22 -38 0
-186 -226 0
-28 -226 0
-146 -226 0
-22 -226 0
-28 -186 0
-146 -186 0
-22 -186 0
-28 -146 0
-22 -28 0
-22 -146 0
-144 -151 0
-144 -243 0
-21 -144 0
-124 -144 0
-139 -144 0
-144 -166 0
-151 -243 0
-21 -151 0
-124 -151 0
-139 -151 0
-151 -166 0
-21 -243 0
-124 -243 0
-139 -243 0
-166 -243 0
-21 -124 0
-21 -139 0
-21 -166 0
-124 -139 0
-124 -166 0
-139 -166 0
-171 -180 0
-100 -171 0
-98 -171 0
-91 -171 0
-20 -171 0
-88 -171 0
-100 -180 0
-98 -180 0
-91 -180 0
-20 -180 0
-88 -180 0
-98 -100 0
-91 -100 0
-20 -100 0
-88 -100 0
-91 -98 0
-20 -98 0
-88 -98 0
-20 -91 0
-88 -91 0
-20 -88 0
-85 -234 0
-173 -234 0
-132 -234 0
-104 -234 0
-195 -234 0
-59 -234 0
-85 -173 0
-85 -132 0
-85 -104 0
-85 -195 0
-59 -85 0
-132 -173 0
-104 -173 0
-173 -195 0
-59 -173 0
-104 -132 0
-132 -195 0
-59 -132 0
-104 -195 0
-59 -104 0
-59 -195 0
-155 -202 0
-19 -155 0
-155 -208 0
-155 -215 0
-84 -155 0
-155 -227 0
-19 -202 0
-202 -208 0
-202 -215 0
-84 -202 0
-202 -227 0
-19 -208 0
-19 -215 0
-19 -84 0
-19 -227 0
-208 -215 0
-84 -208 0
-208 -227 0
-84 -215 0
-215 -227 0
-84 -227 0
-18 -188 0
-17 -18 0
-16 -18 0
-15 -18 0
-18 -150 0
-18 -109 0
-17 -188 0
-16 -188 0
-15 -188 0
-150 -188 0
-109 -188 0
-16 -17 0
-15 -17 0
-17 -150 0
-17 -109 0
-15 -16 0
-16 -150 0
-16 -109 0
-15 -150 0
-15 -109 0
-109 -150 0
-14 -119 0
-119 -162 0
-119 -138 0
-13 -119 0
-119 -249 0
-12 -119 0
-14 -162 0
-14 -138 0
-13 -14 0
-14 -249 0
-12 -14 0
-138 -162 0
-13 -162 0
-162 -249 0
-12 -162 0
-13 -138 0
-138 -249 0
-12 -138 0
-13 -249 0
-12 -13 0
-12 -249 0
-11 -221 0
-74 -221 0
-10 -221 0
-71 -221 0
-67 -221 0
-9 -221 0
-11 -74 0
-10 -11 0
-11 -71 0
-11 -67 0
-9 -11 0
-10 -74 0
-71 -74 0
-67 -74 0
-9 -74 0
-10 -71 0
-10 -67 0
-9 -10 0
-67 -71 0
-9 -71 0
-9 -67 0
-144 -171 0
-144 -234 0
-144 -155 0
-18 -144 0
-119 -144 0
-144 -221 0
-171 -234 0
-155 -171 0
-18 -171 0
-119 -171 0
-171 -221 0
-155 -234 0
-18 -234 0
-119 -234 0
-221 -234 0
-18 -155 0
-119 -155 0
-155 -221 0
-18 -119 0
-18 -221 0
-119 -221 0
-151 -180 0
-85 -151 0
-151 -202 0
-151 -188 0
-14 -151 0
-11 -151 0
-85 -180 0
-180 -202 0
-180 -188 0
-14 -180 0
-11 -180 0
-85 -202 0
-85 -188 0
-14 -85 0
-11 -85 0
-188 -202 0
-14 -202 0
-11 -202 0
-14 -188 0
-11 -188 0
-11 -14 0
-100 -243 0
-173 -243 0
-19 -243 0
-17 -243 0
-162 -243 0
-74 -243 0
-100 -173 0
-19 -100 0
-17 -100 0
-100 -162 0
-74 -100 0
-19 -173 0
-17 -173 0
-162 -173 0
-74 -173 0
-17 -19 0
-19 -162 0
-19 -74 0
-17 -162 0
-17 -74 0
-74 -162 0
-21 -98 0
-21 -132 0
-21 -208 0
-16 -21 0
-21 -138 0
-10 -21 0
-98 -132 0
-98 -208 0
-16 -98 0
-98 -138 0
-10 -98 0
-132 -208 0
-16 -132 0
-132 -138 0
-10 -132 0
-16 -208 0
-138 -208 0
-10 -208 0
-16 -138 0
-10 -16 0
-10 -138 0
-91 -124 0
-104 -124 0
-124 -215 0
-15 -124 0
-13 -124 0
-71 -124 0
-91 -104 0
-91 -215 0
-15 -91 0
-13 -91 0
-71 -91 0
-104 -215 0
-15 -104 0
-13 -104 0
-71 -104 0
-15 -215 0
-13 -215 0
-71 -215 0
-13 -15 0
-15 -71 0
-13 -71 0
-20 -139 0
-139 -195 0
-84 -139 0
-139 -150 0
-139 -249 0
-67 -139 0
-20 -195 0
-20 -84 0
-20 -150 0
-20 -249 0
-20 -67 0
-84 -195 0
-150 -195 0
-195 -249 0
-67 -195 0
-84 -150 0
-84 -249 0
-67 -84 0
-150 -249 0
-67 -150 0
-67 -249 0
-88 -166 0
-59 -166 0
-166 -227 0
-109 -166 0
-12 -166 0
-9 -166 0
-59 -88 0
-88 -227 0
-88 -109 0
-12 -88 0
-9 -88 0
-59 -227 0
-59 -109 0
-12 -59 0
-9 -59 0
-109 -227 0
-12 -227 0
-9 -227 0
-12 -109 0
-9 -109 0
-9 -12 0
-121 -135 0
-121 -198 0
-135 -198 0
-197 -247 0
-141 -247 0
-141 -197 0
-125 -244 0
-8 -244 0
-8 -125 0
-121 -247 0
-121 -244 0
-244 -247 0
-135 -197 0
-125 -135 0
-125 -197 0
-141 -198 0
-8 -198 0
-8 -141 0
-114 -189 0
-131 -189 0
-168 -189 0
-114 -131 0
-114 -168 0
-131 -168 0
-7 -95 0
-76 -95 0
-95 -103 0
-7 -76 0
-7 -103 0
-76 -103 0
-182 -193 0
-122 -182 0
-110 -182 0
-122 -193 0
-110 -193 0
-110 -122 0
-107 -158 0
-107 -217 0
-107 -230 0
-158 -217 0
-158 -230 0
-217 -230 0
-95 -189 0
-182 -189 0
-107 -189 0
-95 -182 0
-95 -107 0
-107 -182 0
-7 -114 0
-114 -193 0
-114 -158 0
-7 -193 0
-7 -158 0
-158 -193 0
-76 -131 0
-122 -131 0
-131 -217 0
-76 -122 0
-76 -217 0
-122 -217 0
-103 -168 0
-110 -168 0
-168 -230 0
-103 -110 0
-103 -230 0
-110 -230 0
-133 -175 0
-117 -175 0
-93 -175 0
-175 -224 0
-35 -175 0
-117 -133 0
-93 -133 0
-133 -224 0
-35 -133 0
-93 -117 0
-117 -224 0
-35 -117 0
-93 -224 0
-35 -93 0
-35 -224 0
-6 -33 0
-33 -129 0
-30 -33 0
-33 -185 0
-33 -232 0
-6 -129 0
-6 -30 0
-6 -185 0
-6 -232 0
-30 -129 0
-129 -185 0
-129 -232 0
-30 -185 0
-30 -232 0
-185 -232 0
-25 -203 0
-25 -205 0
-25 -210 0
-25 -147 0
-25 -154 0
-203 -205 0
-203 -210 0
-147 -203 0
-154 -203 0
-205 -210 0
-147 -205 0
-154 -205 0
-147 -210 0
-154 -210 0
-147 -154 0
-5 -99 0
-99 -219 0
-99 -239 0
-99 -191 0
-99 -251 0
-5 -219 0
-5 -239 0
-5 -191 0
-5 -251 0
-219 -239 0
-191 -219 0
-219 -251 0
-191 -239 0
-239 -251 0
-191 -251 0
-4 -130 0
-130 -167 0
-130 -254 0
-94 -130 0
-79 -130 0
-4 -167 0
-4 -254 0
-4 -94 0
-4 -79 0
-167 -254 0
-94 -167 0
-79 -167 0
-94 -254 0
-79 -254 0
-79 -94 0
-3 -77 0
-77 -101 0
-2 -77 0
-42 -77 0
-77 -200 0
-3 -101 0
-2 -3 0
-3 -42 0
-3 -200 0
-2 -101 0
-42 -101 0
-101 -200 0
-2 -42 0
-2 -200 0
-42 -200 0
-33 -175 0
-25 -175 0
-99 -175 0
-130 -175 0
-77 -175 0
-25 -33 0
-33 -99 0
-33 -130 0
-33 -77 0
-25 -99 0
-25 -130 0
-25 -77 0
-99 -130 0
-77 -99 0
-77 -130 0
-6 -133 0
-133 -203 0
-5 -133 0
-4 -133 0
-3 -133 0
-6 -203 0
-5 -6 0
-4 -6 0
-3 -6 0
-5 -203 0
-4 -203 0
-3 -203 0
-4 -5 0
-3 -5 0
-3 -4 0
-117 -129 0
-117 -205 0
-117 -219 0
-117 -167 0
-101 -117 0
-129 -205 0
-129 -219 0
-129 -167 0
-101 -129 0
-205 -219 0
-167 -205 0
-101 -205 0
-167 -219 0
-101 -219 0
-101 -167 0
-30 -93 0
-93 -210 0
-93 -239 0
-93 -254 0
-2 -93 0
-30 -210 0
-30 -239 0
-30 -254 0
-2 -30 0
-210 -239 0
-210 -254 0
-2 -210 0
-239 -254 0
-2 -239 0
-2 -254 0
-185 -224 0
-147 -224 0
-191 -224 0
-94 -224 0
-42 -224 0
-147 -185 0
-185 -191 0
-94 -185 0
-42 -185 0
-147 -191 0
-94 -147 0
-42 -147 0
-94 -191 0
-42 -191 0
-42 -94 0
-35 -232 0
-35 -154 0
-35 -251 0
-35 -79 0
-35 -200 0
-154 -232 0
-232 -251 0
-79 -232 0
-200 -232 0
-154 -251 0
-79 -154 0
-154 -200 0
-79 -251 0
-200 -251 0
-79 -200 0
-172 -245 0
-157 -172 0
-157 -245 0
-1 -211 0
-1 -222 0
-211 -222 0
-32 -225 0
-169 -225 0
-32 -169 0
-1 -172 0
-172 -225 0
-1 -225 0
-211 -245 0
-32 -245 0
-32 -211 0
-157 -222 0
-157 -169 0
-169 -222 0
